
;this file is automatically generated: Wed Jul 27 12:28:52 IST 2016

;declarations generated

(declare-fun oclSelect ( Int Bool) Int )
(declare-fun type_1c8d5c64_faa7_4607_9488_8a6a0087f02a_D ( Int) Bool )
(declare-fun oclExcludes ( Int Int) Bool )
(declare-fun container_ ( Int) Int )
(declare-fun type_6190bae0_e872_4d90_9071_877dd733e7e1_A ( Int) Bool )
(declare-fun Cardinality ( Int) Int )
(declare-fun type_1d49a931_2d58_4984_8be8_d1277679b7bc_C ( Int) Bool )
(declare-fun oclIncludes ( Int Int) Bool )
(declare-fun obj_7669709d_309e_48c5_870a_1573bada8a2a ( Int) Int )
(declare-fun aux4 () Int )
(declare-fun type_91771462_9f38_4e90_a4cc_aaba7927f595_B ( Int) Bool )
(declare-fun aux2 () Int )
(declare-fun aux3 () Int )
(declare-fun aux0 () Int )
(declare-fun aux1 () Int )
(declare-fun weight2 () Int )
(declare-fun weight3 () Int )
(declare-fun weight0 () Int )
(declare-fun weight1 () Int )
(declare-fun weight4 () Int )
(declare-fun ObjAt ( Int Int) Int )

;formula(s) generated
(assert (and (>= aux0 0) (<= aux0 1)))
(assert (or (or (forall ((b Int)) (=> (and ( type_91771462_9f38_4e90_a4cc_aaba7927f595_B b )  ( type_6190bae0_e872_4d90_9071_877dd733e7e1_A b ) ) (forall ((c Int)) (=> (and ( type_1d49a931_2d58_4984_8be8_d1277679b7bc_C c )  ( type_6190bae0_e872_4d90_9071_877dd733e7e1_A c ) ) (not (= ( obj_7669709d_309e_48c5_870a_1573bada8a2a b )  ( obj_7669709d_309e_48c5_870a_1573bada8a2a c ) ) ))))) (and (= aux0 1) true)) (and (= aux0 0) false)))
(assert (and (=> (= aux0 0) (= weight0 1)) (=> (= aux0 1) (= weight0 0))))
(assert (and (>= aux1 0) (<= aux1 1)))
(assert (and (>= aux2 0) (<= aux2 1)))
(assert (and (>= aux3 0) (<= aux3 1)))
(assert (and (>= aux4 0) (<= aux4 1)))
(assert (or (or (exists ((p Int)) ( type_6190bae0_e872_4d90_9071_877dd733e7e1_A ( obj_7669709d_309e_48c5_870a_1573bada8a2a p )  ) ) (and (= aux1 1) true)) (and (= aux1 0) false)))
(assert (and (=> (= aux1 0) (= weight1 1)) (=> (= aux1 1) (= weight1 0))))
(assert (or (or (exists ((p Int)) (and ( type_91771462_9f38_4e90_a4cc_aaba7927f595_B ( obj_7669709d_309e_48c5_870a_1573bada8a2a p )  )  ( type_6190bae0_e872_4d90_9071_877dd733e7e1_A ( obj_7669709d_309e_48c5_870a_1573bada8a2a p )  ) )) (and (= aux2 1) true)) (and (= aux2 0) false)))
(assert (and (=> (= aux2 0) (= weight2 1)) (=> (= aux2 1) (= weight2 0))))
(assert (or (or (exists ((p Int)) (and ( type_1d49a931_2d58_4984_8be8_d1277679b7bc_C ( obj_7669709d_309e_48c5_870a_1573bada8a2a p )  )  ( type_6190bae0_e872_4d90_9071_877dd733e7e1_A ( obj_7669709d_309e_48c5_870a_1573bada8a2a p )  ) )) (and (= aux3 1) true)) (and (= aux3 0) false)))
(assert (and (=> (= aux3 0) (= weight3 1)) (=> (= aux3 1) (= weight3 0))))
(assert (or (or (exists ((p Int)) (and (and (and ( type_1c8d5c64_faa7_4607_9488_8a6a0087f02a_D ( obj_7669709d_309e_48c5_870a_1573bada8a2a p )  )  ( type_6190bae0_e872_4d90_9071_877dd733e7e1_A ( obj_7669709d_309e_48c5_870a_1573bada8a2a p )  ) ) ( type_91771462_9f38_4e90_a4cc_aaba7927f595_B ( obj_7669709d_309e_48c5_870a_1573bada8a2a p )  ) ) ( type_1d49a931_2d58_4984_8be8_d1277679b7bc_C ( obj_7669709d_309e_48c5_870a_1573bada8a2a p )  ) )) (and (= aux4 1) true)) (and (= aux4 0) false)))
(assert (and (=> (= aux4 0) (= weight4 1)) (=> (= aux4 1) (= weight4 0))))
(assert (= (+ (+ (+ (+ weight0 weight1) weight2) weight3) weight4) 4))
(assert (not (and (and (and (and (= weight0 1) (= weight1 1)) (= weight2 1)) (= weight3 1)) (= weight4 0)) ))
(assert (not (and (and (and (and (= weight0 0) (= weight1 1)) (= weight2 1)) (= weight3 1)) (= weight4 1)) ))
